
Value of objective function: 2.85890000

Actual values of the variables:
x_0_1                           1
x_60_1                          1
x_64_2                          1
x_87_2                          1
x_107_0                         1
